SYSTEM = Bader Analysis

LREAL = .FALSE.
ALGO = NORMAL
PREC = Accurate

ICHARG = 2
ISTART = 0
ISMEAR = 0
SIGMA = 0.05
IVDW = 12
ISIF = 2

NSW = 0                                      # Ionic Steps Set to Zero
IBRION = -1                                  # No Update Algorithm

NCORE = 8

NGXF = 140                                   # Fine FFT grid along x direction to Sample Charge Density
NGYF = 140                                   # Fine FFT grid along y direction to Sample Charge Density
NGZF = 300                                   # Fine FFT grid along z direction to Sample Charge Density

NGX  = 70                                    # Course FFT grid along x direction to Sample Wavefunction                         
NGY  = 70                                    # Course FFT grid along y direction to Sample Wavefunction
NGZ  = 150                                   # Course FFT grid along z direction to Sample Wavefunction

ENCUT = 500
EDIFF = 1E-6
EDIFFG = -0.02

LDIPOL = .TRUE.
IDIPOL = 3

LSORBIT = .TRUE.
LWAVE = .FALSE.
LCHARG = .TRUE.                              # Valence charge density (Pseudo)
LAECHG = .TRUE.                              # True All-electron Charge Density
