SYSTEM = BiSb_surface(relax)

LREAL = .FALSE.
ALGO = NORMAL
PREC = Accurate

ICHARG = 2
ISTART = 0
ISMEAR = 0
SIGMA = 0.05
IVDW = 12
ISIF = 2

NSW = 150
IBRION = 2

NCORE = 8

ENCUT = 500
EDIFF = 1E-6
EDIFFG = -0.02
ISPIN = 1
LDIPOL = .TRUE.
IDIPOL = 3

LSORBIT = .TRUE.
LWAVE = .FALSE.
LCHARG = .FALSE.
