SYSTEM = CI_NEB

LREAL = .FALSE.
ALGO = NORMAL
PREC = Normal

ICHARG = 2
ISTART = 0
ISMEAR = 0
SIGMA = 0.05
ISIF = 2

NSW = 100
IBRION = 2

NCORE = 8

ENCUT = 500
EDIFF = 1E-4
EDIFFG = -0.02

LWAVE = .FALSE.
LCHARG = .FALSE.

ICHAIN = 0
IMAGES = 5
LCLIMB = .TRUE.
SPRING = -5
