SYSTEM = Bader Analysis

LREAL = .FALSE.
ALGO = NORMAL
PREC = Accurate

ICHARG = 2
ISTART = 0
ISMEAR = 0
SIGMA = 0.05
IVDW = 12
ISIF = 2

NSW = 0
IBRION = -1

NCORE = 8

# charge-density / Bader reproducibility
NGXF = 140
NGYF = 140
NGZF = 300

# keep coarse half of fine (integer)
NGX  = 70
NGY  = 70
NGZ  = 150

ENCUT = 500
EDIFF = 1E-6
EDIFFG = -0.02
ISPIN = 1
LDIPOL = .TRUE.
IDIPOL = 3

LSORBIT = .TRUE.
LWAVE = .FALSE.
LCHARG = .TRUE.
LAECHG = .TRUE.
