SYSTEM = Work_Function

LREAL = .FALSE.
ALGO = NORMAL
PREC = Accurate

ICHARG = 2
ISTART = 0
ISMEAR = 0
SIGMA = 0.05
IVDW = 12
ISIF = 2

NSW = 0                               # Ionic Steps Set to Zero
IBRION = -1                           # No Update 

NCORE = 8

ENCUT = 500
EDIFF = 1E-6
EDIFFG = -0.02

LDIPOL = .TRUE.
IDIPOL = 3
DIPOL = 0.5 0.5 0.5                   # Dipole is centred for applying the correction.

LVHAR = .TRUE.                        # Only the classical electrostatic (Hartree) potential. For easy convergence
#LVTOT = .TRUE.                       # Full electrostatic potential (including all contributions). For more accurate results 

LSORBIT = .TRUE.
LWAVE = .FALSE.
LCHARG = .FALSE.
