SYSTEM = (Pdos)

LREAL = .FALSE.
ALGO = NORMAL
PREC = Accurate

ICHARG = 11                 # To read CHGCAR
ISTART = 0
ISMEAR = 0
SIGMA = 0.05

ISIF = 2
IVDW = 12

NSW = 0
IBRION = -1

NCORE = 8

ENCUT = 500
EDIFF = 1E-6
EDIFFG = -0.02
ISPIN = 1

LDIPOL = .TRUE.
IDIPOL = 3

NEDOS = 5000

LSORBIT = .TRUE.
LORBIT = 11

LWAVE = .FALSE.
LCHARG = .FALSE.
