SYSTEM = Band_Structure

LREAL = .FALSE.
ALGO = NORMAL
PREC = Accurate

ICHARG = 11                     #To read CHGCAR file 
ISTART = 0
ISMEAR = 0
SIGMA = 0.05

ISIF = 2
IVDW = 12
NSW = 0
IBRION = -1

NCORE = 8

ENCUT = 500
EDIFF = 1E-6
EDIFFG = -0.02
ISPIN = 1

LDIPOL = .TRUE.
IDIPOL = 3
LSORBIT = .TRUE.

LORBIT = 11                  # Generates PROCAR used for band structure analysis

LWAVE = .FALSE.              
LCHARG = .FALSE.             # Not Required       
