SYSTEM = Work_Function

LREAL = .FALSE.
ALGO = NORMAL
PREC = Accurate

ICHARG = 2
ISTART = 0
ISMEAR = 0
SIGMA = 0.05
IVDW = 12
ISIF = 2

NSW = 0
IBRION = -1

NCORE = 8

ENCUT = 500
EDIFF = 1E-6
EDIFFG = -0.02
ISPIN = 1

LDIPOL = .TRUE.
IDIPOL = 3
DIPOL = 0.5 0.5 0.5

LVHAR = .TRUE.
LSORBIT = .TRUE.
LWAVE = .FALSE.
LCHARG = .FALSE.
